%datafile
VALOR=160
dureza = [8.8, 6.1, 2.0, 4.2, 5.0];
precios = [| 60, 120, 90, 110, 200
           | 130, 130, 110, 90, 115
           | 110, 190, 80, 100, 95
           | 120, 110, 160, 120, 125
           | 100, 80, 150, 110, 105
           | 90, 60, 140, 80, 155 |];

MAXV = 150;
MAXN = 200;

MCAP = 1000;

CA = 5;

MinD = 4.5;
MaxD = 5.5;
MinB = 60000;

inicial = [400, 400, 400, 400, 500];
PV = 10

K = 3;
T = 50;